% seed = 8630684

mint = 62;
% maxt = 233;

nActs = 42;
dur = [0,7,7,7,4,7,2,9,4,10,9,10,5,9,6,6,8,2,6,4,5,6,4,7,1,7,3,6,3,2,9,1,2,8,10,1,3,5,10,8,10,0];

nSkills = 4;
sreq = [| 0,0,0,0,
	| 5,0,1,5,
	| 5,0,2,2,
	| 4,4,6,0,
	| 3,3,2,0,
	| 0,3,1,4,
	| 4,5,0,4,
	| 2,2,0,7,
	| 0,4,5,1,
	| 4,5,4,0,
	| 6,0,6,6,
	| 0,5,5,4,
	| 7,0,6,5,
	| 5,6,5,0,
	| 5,7,4,0,
	| 2,5,4,0,
	| 6,4,5,0,
	| 6,5,0,5,
	| 3,3,0,3,
	| 1,0,4,4,
	| 5,6,5,0,
	| 6,0,4,7,
	| 0,3,5,3,
	| 0,5,4,2,
	| 0,4,3,3,
	| 2,4,0,3,
	| 5,2,6,0,
	| 7,2,4,0,
	| 5,3,4,0,
	| 0,4,3,3,
	| 0,1,4,3,
	| 2,3,3,0,
	| 0,4,4,2,
	| 0,4,5,3,
	| 4,4,0,2,
	| 0,5,3,6,
	| 5,0,4,4,
	| 0,3,3,3,
	| 0,4,5,2,
	| 7,4,1,0,
	| 5,0,3,4,
	| 0,0,0,0, |];

nResources = 38;
mastery = [| false,false,true,false,
	| true,false,false,true,
	| false,false,true,true,
	| false,false,true,true,
	| true,false,false,false,
	| true,true,false,true,
	| true,false,false,false,
	| false,false,true,false,
	| false,true,false,true,
	| false,true,false,false,
	| true,false,true,true,
	| true,true,false,false,
	| true,true,true,false,
	| false,true,false,true,
	| false,true,true,true,
	| true,true,true,false,
	| true,false,false,false,
	| true,false,true,true,
	| true,false,true,true,
	| true,false,false,true,
	| false,false,true,false,
	| false,true,true,false,
	| true,false,false,true,
	| false,true,false,false,
	| false,true,false,true,
	| true,true,false,true,
	| false,false,true,false,
	| false,false,true,true,
	| true,false,true,true,
	| false,false,true,true,
	| true,true,true,false,
	| true,true,false,true,
	| true,false,false,true,
	| false,true,false,false,
	| false,true,true,false,
	| false,false,true,false,
	| true,true,true,false,
	| true,true,true,false, |];

nPrecs = 73;
pred = [1,1,1,2,2,2,3,3,4,5,6,6,6,7,7,7,8,8,8,9,9,10,10,10,11,11,12,12,12,13,14,14,14,15,16,17,17,17,18,18,18,19,19,19,20,20,20,21,22,22,22,23,24,25,25,26,27,28,29,29,30,31,32,33,34,35,36,36,37,38,39,40,41];
succ = [2,3,4,6,7,8,5,6,10,22,9,11,14,20,31,24,12,29,16,36,32,25,34,15,13,23,17,25,19,18,25,29,21,31,30,26,27,37,34,19,21,35,36,37,29,27,21,30,33,41,39,41,28,35,37,32,30,34,32,40,33,40,35,36,38,39,41,38,39,40,42,42,42];

nUnrels = 471;
unpred = [2,2,2,2,2,2,3,3,3,3,3,3,3,3,3,3,3,3,3,3,4,4,4,4,4,4,4,4,4,4,4,4,4,4,4,4,4,4,4,4,4,4,4,4,4,4,4,5,5,5,5,5,5,5,5,5,5,5,5,5,5,5,5,5,5,5,5,5,5,5,5,5,5,5,5,5,6,6,6,6,6,6,6,6,6,6,6,6,6,6,7,7,7,7,7,7,7,7,7,7,7,7,7,7,7,7,7,8,8,8,8,8,8,8,8,8,8,8,8,8,8,8,9,9,9,9,9,9,9,9,9,9,9,9,9,9,9,9,9,9,9,9,9,9,9,9,9,10,10,10,10,10,10,10,10,10,10,10,10,10,10,10,10,10,10,10,10,10,10,11,11,11,11,11,11,11,11,11,11,11,11,11,11,11,12,12,12,12,12,12,12,12,12,12,12,12,12,12,13,13,13,13,13,13,13,13,13,13,13,13,13,13,13,14,14,14,14,14,14,14,14,14,14,14,14,14,14,15,15,15,15,15,15,15,15,15,15,15,15,15,15,15,15,15,15,15,15,15,15,15,15,16,16,16,16,16,16,16,16,16,16,16,16,16,16,16,16,16,16,16,17,17,17,17,17,17,17,17,17,17,17,17,18,18,18,18,18,18,18,18,18,18,18,19,19,19,19,19,19,19,19,19,19,19,19,19,19,19,20,20,20,20,20,20,20,20,20,21,21,21,21,21,21,21,21,21,21,21,21,21,21,22,22,22,22,22,22,22,22,22,22,22,22,22,23,23,23,23,23,23,23,23,23,23,23,23,23,23,23,23,23,24,24,24,24,24,24,24,24,24,24,24,24,24,25,25,25,25,25,25,25,25,25,25,25,25,25,26,26,26,26,26,26,26,26,26,26,26,26,27,27,27,27,27,27,27,27,28,28,28,28,28,28,28,28,28,28,29,29,29,29,29,29,29,29,30,30,30,30,30,30,31,31,31,31,31,31,31,31,31,32,32,32,32,32,32,32,33,33,33,33,34,34,34,34,34,35,35,35,35,35,36,36,37,37,37,38,38,39,39,40];
unsucc = [3,4,5,10,15,22,4,7,8,10,12,15,16,17,20,24,26,27,28,31,5,6,7,8,9,11,12,13,14,16,17,18,19,20,21,22,23,24,26,27,28,29,30,32,33,36,41,6,7,8,9,10,11,12,13,14,15,16,17,18,19,20,21,23,24,25,26,27,28,29,30,31,32,34,35,37,7,8,10,12,15,16,17,20,22,24,26,27,28,31,8,9,10,11,12,13,14,15,16,17,18,19,22,23,25,26,37,9,10,11,13,14,15,18,20,21,22,23,24,28,31,34,10,11,12,13,14,15,16,17,18,19,20,21,22,23,24,25,26,27,28,29,30,31,33,34,37,11,12,13,14,16,17,18,19,20,21,22,23,24,26,27,28,29,30,32,33,36,41,12,14,15,16,17,20,22,24,25,26,27,28,29,31,32,13,14,15,16,18,20,21,22,23,24,28,29,31,34,14,15,16,17,20,22,23,24,25,26,27,28,29,31,32,15,16,17,18,19,20,22,23,24,26,27,28,31,34,16,17,18,19,20,21,22,23,24,25,26,27,28,29,30,32,33,34,35,36,37,38,39,41,17,18,19,20,21,22,23,24,25,26,27,28,29,31,32,34,35,37,39,18,19,20,21,22,23,24,25,28,29,31,34,20,22,23,24,25,26,27,28,29,31,32,20,21,22,23,24,25,26,27,28,29,30,31,32,33,34,22,23,24,25,26,28,31,34,37,22,23,24,25,26,27,28,29,31,32,34,35,37,39,23,24,25,26,27,28,29,30,31,32,34,35,37,24,25,26,27,28,29,30,31,32,33,34,35,36,37,38,39,40,25,26,27,29,30,31,32,33,35,36,37,39,41,26,27,28,29,30,31,32,33,34,36,38,40,41,27,28,29,30,31,33,34,36,37,38,40,41,28,29,31,32,34,35,37,39,29,30,31,32,33,35,36,37,39,41,30,31,33,34,36,37,38,41,31,32,34,35,37,39,32,33,34,35,36,37,38,39,41,33,34,36,37,38,40,41,34,35,37,39,35,36,37,39,41,36,37,38,40,41,37,39,38,40,41,39,41,40,41,41];

USEFUL_RES = [{},
	{1,2,3,4,5,6,7,8,9,11,12,13,14,15,16,17,18,19,20,21,22,23,25,26,27,28,29,30,31,32,33,35,36,37,38},
	{1,2,3,4,5,6,7,8,9,11,12,13,14,15,16,17,18,19,20,21,22,23,25,26,27,28,29,30,31,32,33,35,36,37,38},
	{1,2,3,4,5,6,7,8,9,10,11,12,13,14,15,16,17,18,19,20,21,22,23,24,25,26,27,28,29,30,31,32,33,34,35,36,37,38},
	{1,2,3,4,5,6,7,8,9,10,11,12,13,14,15,16,17,18,19,20,21,22,23,24,25,26,27,28,29,30,31,32,33,34,35,36,37,38},
	{1,2,3,4,6,8,9,10,11,12,13,14,15,16,18,19,20,21,22,23,24,25,26,27,28,29,30,31,32,33,34,35,36,37,38},
	{2,3,4,5,6,7,9,10,11,12,13,14,15,16,17,18,19,20,22,23,24,25,26,28,29,30,31,32,33,34,35,37,38},
	{2,3,4,5,6,7,9,10,11,12,13,14,15,16,17,18,19,20,22,23,24,25,26,28,29,30,31,32,33,34,35,37,38},
	{1,2,3,4,6,8,9,10,11,12,13,14,15,16,18,19,20,21,22,23,24,25,26,27,28,29,30,31,32,33,34,35,36,37,38},
	{1,2,3,4,5,6,7,8,9,10,11,12,13,14,15,16,17,18,19,20,21,22,23,24,25,26,27,28,29,30,31,32,33,34,35,36,37,38},
	{1,2,3,4,5,6,7,8,9,11,12,13,14,15,16,17,18,19,20,21,22,23,25,26,27,28,29,30,31,32,33,35,36,37,38},
	{1,2,3,4,6,8,9,10,11,12,13,14,15,16,18,19,20,21,22,23,24,25,26,27,28,29,30,31,32,33,34,35,36,37,38},
	{1,2,3,4,5,6,7,8,9,11,12,13,14,15,16,17,18,19,20,21,22,23,25,26,27,28,29,30,31,32,33,35,36,37,38},
	{1,2,3,4,5,6,7,8,9,10,11,12,13,14,15,16,17,18,19,20,21,22,23,24,25,26,27,28,29,30,31,32,33,34,35,36,37,38},
	{1,2,3,4,5,6,7,8,9,10,11,12,13,14,15,16,17,18,19,20,21,22,23,24,25,26,27,28,29,30,31,32,33,34,35,36,37,38},
	{1,2,3,4,5,6,7,8,9,10,11,12,13,14,15,16,17,18,19,20,21,22,23,24,25,26,27,28,29,30,31,32,33,34,35,36,37,38},
	{1,2,3,4,5,6,7,8,9,10,11,12,13,14,15,16,17,18,19,20,21,22,23,24,25,26,27,28,29,30,31,32,33,34,35,36,37,38},
	{2,3,4,5,6,7,9,10,11,12,13,14,15,16,17,18,19,20,22,23,24,25,26,28,29,30,31,32,33,34,35,37,38},
	{2,3,4,5,6,7,9,10,11,12,13,14,15,16,17,18,19,20,22,23,24,25,26,28,29,30,31,32,33,34,35,37,38},
	{1,2,3,4,5,6,7,8,9,11,12,13,14,15,16,17,18,19,20,21,22,23,25,26,27,28,29,30,31,32,33,35,36,37,38},
	{1,2,3,4,5,6,7,8,9,10,11,12,13,14,15,16,17,18,19,20,21,22,23,24,25,26,27,28,29,30,31,32,33,34,35,36,37,38},
	{1,2,3,4,5,6,7,8,9,11,12,13,14,15,16,17,18,19,20,21,22,23,25,26,27,28,29,30,31,32,33,35,36,37,38},
	{1,2,3,4,6,8,9,10,11,12,13,14,15,16,18,19,20,21,22,23,24,25,26,27,28,29,30,31,32,33,34,35,36,37,38},
	{1,2,3,4,6,8,9,10,11,12,13,14,15,16,18,19,20,21,22,23,24,25,26,27,28,29,30,31,32,33,34,35,36,37,38},
	{1,2,3,4,6,8,9,10,11,12,13,14,15,16,18,19,20,21,22,23,24,25,26,27,28,29,30,31,32,33,34,35,36,37,38},
	{2,3,4,5,6,7,9,10,11,12,13,14,15,16,17,18,19,20,22,23,24,25,26,28,29,30,31,32,33,34,35,37,38},
	{1,2,3,4,5,6,7,8,9,10,11,12,13,14,15,16,17,18,19,20,21,22,23,24,25,26,27,28,29,30,31,32,33,34,35,36,37,38},
	{1,2,3,4,5,6,7,8,9,10,11,12,13,14,15,16,17,18,19,20,21,22,23,24,25,26,27,28,29,30,31,32,33,34,35,36,37,38},
	{1,2,3,4,5,6,7,8,9,10,11,12,13,14,15,16,17,18,19,20,21,22,23,24,25,26,27,28,29,30,31,32,33,34,35,36,37,38},
	{1,2,3,4,6,8,9,10,11,12,13,14,15,16,18,19,20,21,22,23,24,25,26,27,28,29,30,31,32,33,34,35,36,37,38},
	{1,2,3,4,6,8,9,10,11,12,13,14,15,16,18,19,20,21,22,23,24,25,26,27,28,29,30,31,32,33,34,35,36,37,38},
	{1,2,3,4,5,6,7,8,9,10,11,12,13,14,15,16,17,18,19,20,21,22,23,24,25,26,27,28,29,30,31,32,33,34,35,36,37,38},
	{1,2,3,4,6,8,9,10,11,12,13,14,15,16,18,19,20,21,22,23,24,25,26,27,28,29,30,31,32,33,34,35,36,37,38},
	{1,2,3,4,6,8,9,10,11,12,13,14,15,16,18,19,20,21,22,23,24,25,26,27,28,29,30,31,32,33,34,35,36,37,38},
	{2,3,4,5,6,7,9,10,11,12,13,14,15,16,17,18,19,20,22,23,24,25,26,28,29,30,31,32,33,34,35,37,38},
	{1,2,3,4,6,8,9,10,11,12,13,14,15,16,18,19,20,21,22,23,24,25,26,27,28,29,30,31,32,33,34,35,36,37,38},
	{1,2,3,4,5,6,7,8,9,11,12,13,14,15,16,17,18,19,20,21,22,23,25,26,27,28,29,30,31,32,33,35,36,37,38},
	{1,2,3,4,6,8,9,10,11,12,13,14,15,16,18,19,20,21,22,23,24,25,26,27,28,29,30,31,32,33,34,35,36,37,38},
	{1,2,3,4,6,8,9,10,11,12,13,14,15,16,18,19,20,21,22,23,24,25,26,27,28,29,30,31,32,33,34,35,36,37,38},
	{1,2,3,4,5,6,7,8,9,10,11,12,13,14,15,16,17,18,19,20,21,22,23,24,25,26,27,28,29,30,31,32,33,34,35,36,37,38},
	{1,2,3,4,5,6,7,8,9,11,12,13,14,15,16,17,18,19,20,21,22,23,25,26,27,28,29,30,31,32,33,35,36,37,38},
	{}];

POTENTIAL_ACT = [{2,3,4,5,6,9,10,11,12,13,14,15,16,17,20,21,22,23,24,25,27,28,29,30,31,32,33,34,36,37,38,39,40,41},
	{2,3,4,5,6,7,8,9,10,11,12,13,14,15,16,17,18,19,20,21,22,23,24,25,26,27,28,29,30,31,32,33,34,35,36,37,38,39,40,41},
	{2,3,4,5,6,7,8,9,10,11,12,13,14,15,16,17,18,19,20,21,22,23,24,25,26,27,28,29,30,31,32,33,34,35,36,37,38,39,40,41},
	{2,3,4,5,6,7,8,9,10,11,12,13,14,15,16,17,18,19,20,21,22,23,24,25,26,27,28,29,30,31,32,33,34,35,36,37,38,39,40,41},
	{2,3,4,5,7,8,10,11,13,14,15,16,17,18,19,20,21,22,26,27,28,29,32,35,37,40,41},
	{2,3,4,5,6,7,8,9,10,11,12,13,14,15,16,17,18,19,20,21,22,23,24,25,26,27,28,29,30,31,32,33,34,35,36,37,38,39,40,41},
	{2,3,4,5,7,8,10,11,13,14,15,16,17,18,19,20,21,22,26,27,28,29,32,35,37,40,41},
	{2,3,4,5,6,9,10,11,12,13,14,15,16,17,20,21,22,23,24,25,27,28,29,30,31,32,33,34,36,37,38,39,40,41},
	{2,3,4,5,6,7,8,9,10,11,12,13,14,15,16,17,18,19,20,21,22,23,24,25,26,27,28,29,30,31,32,33,34,35,36,37,38,39,40,41},
	{4,5,6,7,8,9,10,12,14,15,16,17,18,19,21,23,24,25,26,27,28,29,30,31,32,33,34,35,36,38,39,40},
	{2,3,4,5,6,7,8,9,10,11,12,13,14,15,16,17,18,19,20,21,22,23,24,25,26,27,28,29,30,31,32,33,34,35,36,37,38,39,40,41},
	{2,3,4,5,6,7,8,9,10,11,12,13,14,15,16,17,18,19,20,21,22,23,24,25,26,27,28,29,30,31,32,33,34,35,36,37,38,39,40,41},
	{2,3,4,5,6,7,8,9,10,11,12,13,14,15,16,17,18,19,20,21,22,23,24,25,26,27,28,29,30,31,32,33,34,35,36,37,38,39,40,41},
	{2,3,4,5,6,7,8,9,10,11,12,13,14,15,16,17,18,19,20,21,22,23,24,25,26,27,28,29,30,31,32,33,34,35,36,37,38,39,40,41},
	{2,3,4,5,6,7,8,9,10,11,12,13,14,15,16,17,18,19,20,21,22,23,24,25,26,27,28,29,30,31,32,33,34,35,36,37,38,39,40,41},
	{2,3,4,5,6,7,8,9,10,11,12,13,14,15,16,17,18,19,20,21,22,23,24,25,26,27,28,29,30,31,32,33,34,35,36,37,38,39,40,41},
	{2,3,4,5,7,8,10,11,13,14,15,16,17,18,19,20,21,22,26,27,28,29,32,35,37,40,41},
	{2,3,4,5,6,7,8,9,10,11,12,13,14,15,16,17,18,19,20,21,22,23,24,25,26,27,28,29,30,31,32,33,34,35,36,37,38,39,40,41},
	{2,3,4,5,6,7,8,9,10,11,12,13,14,15,16,17,18,19,20,21,22,23,24,25,26,27,28,29,30,31,32,33,34,35,36,37,38,39,40,41},
	{2,3,4,5,6,7,8,9,10,11,12,13,14,15,16,17,18,19,20,21,22,23,24,25,26,27,28,29,30,31,32,33,34,35,36,37,38,39,40,41},
	{2,3,4,5,6,9,10,11,12,13,14,15,16,17,20,21,22,23,24,25,27,28,29,30,31,32,33,34,36,37,38,39,40,41},
	{2,3,4,5,6,7,8,9,10,11,12,13,14,15,16,17,18,19,20,21,22,23,24,25,26,27,28,29,30,31,32,33,34,35,36,37,38,39,40,41},
	{2,3,4,5,6,7,8,9,10,11,12,13,14,15,16,17,18,19,20,21,22,23,24,25,26,27,28,29,30,31,32,33,34,35,36,37,38,39,40,41},
	{4,5,6,7,8,9,10,12,14,15,16,17,18,19,21,23,24,25,26,27,28,29,30,31,32,33,34,35,36,38,39,40},
	{2,3,4,5,6,7,8,9,10,11,12,13,14,15,16,17,18,19,20,21,22,23,24,25,26,27,28,29,30,31,32,33,34,35,36,37,38,39,40,41},
	{2,3,4,5,6,7,8,9,10,11,12,13,14,15,16,17,18,19,20,21,22,23,24,25,26,27,28,29,30,31,32,33,34,35,36,37,38,39,40,41},
	{2,3,4,5,6,9,10,11,12,13,14,15,16,17,20,21,22,23,24,25,27,28,29,30,31,32,33,34,36,37,38,39,40,41},
	{2,3,4,5,6,7,8,9,10,11,12,13,14,15,16,17,18,19,20,21,22,23,24,25,26,27,28,29,30,31,32,33,34,35,36,37,38,39,40,41},
	{2,3,4,5,6,7,8,9,10,11,12,13,14,15,16,17,18,19,20,21,22,23,24,25,26,27,28,29,30,31,32,33,34,35,36,37,38,39,40,41},
	{2,3,4,5,6,7,8,9,10,11,12,13,14,15,16,17,18,19,20,21,22,23,24,25,26,27,28,29,30,31,32,33,34,35,36,37,38,39,40,41},
	{2,3,4,5,6,7,8,9,10,11,12,13,14,15,16,17,18,19,20,21,22,23,24,25,26,27,28,29,30,31,32,33,34,35,36,37,38,39,40,41},
	{2,3,4,5,6,7,8,9,10,11,12,13,14,15,16,17,18,19,20,21,22,23,24,25,26,27,28,29,30,31,32,33,34,35,36,37,38,39,40,41},
	{2,3,4,5,6,7,8,9,10,11,12,13,14,15,16,17,18,19,20,21,22,23,24,25,26,27,28,29,30,31,32,33,34,35,36,37,38,39,40,41},
	{4,5,6,7,8,9,10,12,14,15,16,17,18,19,21,23,24,25,26,27,28,29,30,31,32,33,34,35,36,38,39,40},
	{2,3,4,5,6,7,8,9,10,11,12,13,14,15,16,17,18,19,20,21,22,23,24,25,26,27,28,29,30,31,32,33,34,35,36,37,38,39,40,41},
	{2,3,4,5,6,9,10,11,12,13,14,15,16,17,20,21,22,23,24,25,27,28,29,30,31,32,33,34,36,37,38,39,40,41},
	{2,3,4,5,6,7,8,9,10,11,12,13,14,15,16,17,18,19,20,21,22,23,24,25,26,27,28,29,30,31,32,33,34,35,36,37,38,39,40,41},
	{2,3,4,5,6,7,8,9,10,11,12,13,14,15,16,17,18,19,20,21,22,23,24,25,26,27,28,29,30,31,32,33,34,35,36,37,38,39,40,41}];
